NAME: cuum990.tsp
TYPE: TSP
COMMENT: User-generated TSP file
DIMENSION: 990
EDGE_WEIGHT_TYPE: EUC_2D
NODE_COORD_SECTION
1 767.0 956.0
2 41.0 871.0
3 366.0 961.0
4 164.0 462.0
5 108.0 966.0
6 434.0 895.0
7 480.0 337.0
8 167.0 220.0
9 728.0 163.0
10 878.0 345.0
11 982.0 811.0
12 564.0 857.0
13 683.0 428.0
14 354.0 788.0
15 707.0 809.0
16 403.0 678.0
17 447.0 96.0
18 946.0 705.0
19 133.0 851.0
20 577.0 866.0
21 207.0 678.0
22 269.0 509.0
23 869.0 951.0
24 204.0 823.0
25 181.0 351.0
26 900.0 145.0
27 259.0 801.0
28 218.0 814.0
29 42.0 921.0
30 767.0 14.0
31 567.0 498.0
32 737.0 253.0
33 429.0 338.0
34 308.0 915.0
35 738.0 110.0
36 788.0 765.0
37 884.0 836.0
38 783.0 853.0
39 522.0 90.0
40 908.0 79.0
41 320.0 205.0
42 5.0 671.0
43 40.0 857.0
44 444.0 270.0
45 849.0 264.0
46 686.0 974.0
47 450.0 615.0
48 631.0 25.0
49 39.0 908.0
50 195.0 25.0
51 895.0 470.0
52 194.0 879.0
53 620.0 529.0
54 70.0 814.0
55 659.0 357.0
56 979.0 752.0
57 153.0 651.0
58 103.0 471.0
59 582.0 323.0
60 507.0 243.0
61 442.0 233.0
62 198.0 757.0
63 772.0 709.0
64 465.0 647.0
65 121.0 275.0
66 512.0 43.0
67 592.0 965.0
68 197.0 862.0
69 191.0 807.0
70 119.0 387.0
71 15.0 413.0
72 5.0 170.0
73 465.0 1.0
74 743.0 885.0
75 455.0 393.0
76 295.0 548.0
77 665.0 131.0
78 981.0 518.0
79 152.0 654.0
80 64.0 744.0
81 652.0 939.0
82 57.0 434.0
83 395.0 280.0
84 670.0 837.0
85 456.0 632.0
86 813.0 184.0
87 449.0 301.0
88 262.0 836.0
89 900.0 291.0
90 417.0 589.0
91 729.0 45.0
92 71.0 971.0
93 860.0 158.0
94 503.0 821.0
95 172.0 950.0
96 812.0 151.0
97 949.0 186.0
98 54.0 645.0
99 562.0 847.0
100 968.0 365.0
101 862.0 114.0
102 190.0 882.0
103 773.0 158.0
104 838.0 584.0
105 936.0 112.0
106 187.0 273.0
107 273.0 647.0
108 960.0 90.0
109 482.0 601.0
110 924.0 56.0
111 986.0 487.0
112 242.0 762.0
113 26.0 488.0
114 472.0 939.0
115 181.0 67.0
116 630.0 261.0
117 269.0 888.0
118 514.0 809.0
119 199.0 470.0
120 140.0 937.0
121 130.0 567.0
122 776.0 251.0
123 327.0 298.0
124 287.0 689.0
125 7.0 568.0
126 53.0 763.0
127 120.0 975.0
128 128.0 730.0
129 136.0 832.0
130 844.0 453.0
131 483.0 165.0
132 523.0 454.0
133 493.0 785.0
134 895.0 88.0
135 856.0 838.0
136 623.0 985.0
137 776.0 597.0
138 538.0 224.0
139 220.0 119.0
140 63.0 191.0
141 655.0 514.0
142 742.0 867.0
143 14.0 40.0
144 201.0 931.0
145 505.0 126.0
146 650.0 762.0
147 42.0 756.0
148 615.0 547.0
149 555.0 424.0
150 131.0 785.0
151 842.0 431.0
152 368.0 851.0
153 774.0 653.0
154 723.0 39.0
155 237.0 473.0
156 169.0 39.0
157 8.0 821.0
158 515.0 758.0
159 916.0 225.0
160 164.0 100.0
161 506.0 690.0
162 24.0 202.0
163 281.0 333.0
164 396.0 88.0
165 847.0 850.0
166 482.0 219.0
167 663.0 595.0
168 762.0 852.0
169 33.0 86.0
170 688.0 276.0
171 779.0 707.0
172 162.0 685.0
173 61.0 723.0
174 719.0 471.0
175 106.0 790.0
176 120.0 667.0
177 162.0 79.0
178 98.0 891.0
179 803.0 246.0
180 823.0 581.0
181 455.0 499.0
182 832.0 81.0
183 760.0 368.0
184 557.0 37.0
185 195.0 236.0
186 472.0 271.0
187 507.0 173.0
188 654.0 475.0
189 37.0 845.0
190 164.0 413.0
191 398.0 586.0
192 630.0 911.0
193 355.0 270.0
194 186.0 40.0
195 496.0 42.0
196 410.0 514.0
197 61.0 371.0
198 522.0 648.0
199 939.0 805.0
200 789.0 798.0
201 958.0 706.0
202 802.0 209.0
203 789.0 905.0
204 347.0 894.0
205 59.0 639.0
206 675.0 568.0
207 918.0 493.0
208 687.0 978.0
209 220.0 484.0
210 592.0 12.0
211 660.0 461.0
212 902.0 326.0
213 38.0 258.0
214 726.0 168.0
215 675.0 401.0
216 786.0 731.0
217 321.0 362.0
218 142.0 674.0
219 670.0 147.0
220 801.0 990.0
221 71.0 34.0
222 338.0 502.0
223 45.0 106.0
224 419.0 741.0
225 658.0 320.0
226 194.0 696.0
227 58.0 91.0
228 76.0 452.0
229 70.0 97.0
230 197.0 431.0
231 29.0 617.0
232 153.0 542.0
233 432.0 37.0
234 721.0 929.0
235 860.0 140.0
236 161.0 508.0
237 392.0 120.0
238 865.0 693.0
239 408.0 650.0
240 334.0 696.0
241 598.0 233.0
242 245.0 656.0
243 488.0 352.0
244 889.0 107.0
245 322.0 56.0
246 450.0 149.0
247 390.0 188.0
248 895.0 178.0
249 80.0 100.0
250 400.0 146.0
251 764.0 267.0
252 450.0 329.0
253 147.0 878.0
254 95.0 501.0
255 61.0 355.0
256 679.0 512.0
257 220.0 808.0
258 558.0 708.0
259 27.0 659.0
260 699.0 552.0
261 346.0 881.0
262 808.0 95.0
263 619.0 917.0
264 607.0 143.0
265 940.0 312.0
266 868.0 974.0
267 383.0 2.0
268 157.0 216.0
269 407.0 675.0
270 407.0 519.0
271 884.0 96.0
272 392.0 498.0
273 218.0 669.0
274 609.0 550.0
275 473.0 108.0
276 818.0 28.0
277 568.0 668.0
278 934.0 526.0
279 21.0 247.0
280 516.0 969.0
281 834.0 974.0
282 326.0 667.0
283 870.0 132.0
284 337.0 803.0
285 931.0 890.0
286 817.0 282.0
287 477.0 450.0
288 254.0 656.0
289 199.0 533.0
290 375.0 104.0
291 3.0 253.0
292 641.0 81.0
293 651.0 503.0
294 617.0 321.0
295 272.0 127.0
296 649.0 43.0
297 771.0 862.0
298 151.0 259.0
299 200.0 19.0
300 911.0 212.0
301 857.0 862.0
302 858.0 222.0
303 275.0 44.0
304 852.0 576.0
305 781.0 245.0
306 622.0 142.0
307 401.0 742.0
308 521.0 239.0
309 619.0 518.0
310 403.0 492.0
311 303.0 368.0
312 590.0 374.0
313 298.0 181.0
314 915.0 906.0
315 662.0 432.0
316 40.0 57.0
317 173.0 657.0
318 976.0 23.0
319 179.0 964.0
320 175.0 411.0
321 784.0 437.0
322 707.0 169.0
323 387.0 188.0
324 595.0 851.0
325 395.0 287.0
326 616.0 971.0
327 62.0 610.0
328 682.0 573.0
329 701.0 15.0
330 889.0 976.0
331 827.0 470.0
332 200.0 458.0
333 586.0 682.0
334 969.0 77.0
335 78.0 855.0
336 423.0 848.0
337 563.0 184.0
338 500.0 623.0
339 910.0 547.0
340 920.0 424.0
341 971.0 93.0
342 898.0 210.0
343 989.0 480.0
344 231.0 688.0
345 191.0 957.0
346 946.0 169.0
347 560.0 135.0
348 712.0 145.0
349 1.0 2.0
350 694.0 89.0
351 889.0 902.0
352 754.0 299.0
353 51.0 479.0
354 618.0 530.0
355 358.0 13.0
356 287.0 924.0
357 149.0 868.0
358 870.0 883.0
359 670.0 34.0
360 965.0 698.0
361 583.0 925.0
362 865.0 162.0
363 924.0 306.0
364 394.0 949.0
365 943.0 459.0
366 594.0 784.0
367 149.0 741.0
368 609.0 317.0
369 734.0 607.0
370 764.0 987.0
371 581.0 544.0
372 797.0 45.0
373 238.0 697.0
374 628.0 555.0
375 283.0 79.0
376 540.0 326.0
377 932.0 302.0
378 804.0 608.0
379 589.0 249.0
380 484.0 210.0
381 565.0 139.0
382 916.0 92.0
383 415.0 902.0
384 731.0 359.0
385 760.0 227.0
386 306.0 642.0
387 442.0 391.0
388 509.0 548.0
389 156.0 60.0
390 600.0 615.0
391 458.0 480.0
392 373.0 202.0
393 453.0 464.0
394 87.0 580.0
395 556.0 4.0
396 818.0 54.0
397 574.0 201.0
398 805.0 408.0
399 781.0 104.0
400 460.0 356.0
401 472.0 387.0
402 217.0 711.0
403 451.0 607.0
404 970.0 51.0
405 986.0 341.0
406 968.0 502.0
407 979.0 164.0
408 317.0 615.0
409 663.0 47.0
410 444.0 918.0
411 542.0 507.0
412 78.0 100.0
413 680.0 225.0
414 682.0 135.0
415 171.0 153.0
416 403.0 537.0
417 35.0 31.0
418 730.0 740.0
419 941.0 802.0
420 756.0 613.0
421 568.0 141.0
422 972.0 430.0
423 975.0 658.0
424 889.0 768.0
425 949.0 684.0
426 79.0 829.0
427 594.0 809.0
428 370.0 403.0
429 653.0 888.0
430 859.0 875.0
431 684.0 589.0
432 713.0 466.0
433 782.0 966.0
434 96.0 275.0
435 155.0 565.0
436 806.0 661.0
437 63.0 700.0
438 237.0 791.0
439 531.0 657.0
440 262.0 286.0
441 946.0 591.0
442 813.0 338.0
443 796.0 499.0
444 657.0 105.0
445 12.0 14.0
446 774.0 582.0
447 231.0 172.0
448 512.0 831.0
449 813.0 437.0
450 569.0 472.0
451 680.0 877.0
452 19.0 941.0
453 849.0 113.0
454 596.0 718.0
455 330.0 18.0
456 902.0 71.0
457 609.0 754.0
458 667.0 779.0
459 802.0 230.0
460 746.0 920.0
461 976.0 882.0
462 700.0 398.0
463 492.0 712.0
464 721.0 133.0
465 490.0 99.0
466 734.0 422.0
467 692.0 931.0
468 835.0 975.0
469 305.0 63.0
470 108.0 451.0
471 575.0 23.0
472 163.0 988.0
473 894.0 686.0
474 920.0 947.0
475 604.0 208.0
476 593.0 775.0
477 689.0 411.0
478 934.0 918.0
479 206.0 45.0
480 175.0 697.0
481 341.0 304.0
482 274.0 955.0
483 390.0 173.0
484 346.0 6.0
485 523.0 868.0
486 192.0 937.0
487 327.0 467.0
488 990.0 863.0
489 535.0 864.0
490 552.0 656.0
491 706.0 682.0
492 237.0 279.0
493 664.0 775.0
494 342.0 470.0
495 533.0 692.0
496 96.0 893.0
497 981.0 228.0
498 739.0 871.0
499 900.0 577.0
500 904.0 593.0
501 42.0 852.0
502 959.0 933.0
503 801.0 201.0
504 950.0 104.0
505 934.0 862.0
506 689.0 81.0
507 282.0 287.0
508 485.0 775.0
509 316.0 587.0
510 554.0 802.0
511 66.0 60.0
512 742.0 402.0
513 847.0 361.0
514 168.0 452.0
515 980.0 350.0
516 134.0 863.0
517 398.0 762.0
518 701.0 641.0
519 636.0 28.0
520 287.0 475.0
521 830.0 627.0
522 950.0 195.0
523 412.0 600.0
524 920.0 461.0
525 270.0 410.0
526 337.0 790.0
527 372.0 266.0
528 631.0 985.0
529 519.0 266.0
530 411.0 248.0
531 596.0 886.0
532 286.0 134.0
533 162.0 696.0
534 767.0 311.0
535 192.0 514.0
536 80.0 556.0
537 225.0 448.0
538 913.0 217.0
539 432.0 523.0
540 450.0 641.0
541 902.0 570.0
542 587.0 232.0
543 887.0 915.0
544 599.0 538.0
545 620.0 722.0
546 976.0 151.0
547 905.0 182.0
548 216.0 69.0
549 84.0 979.0
550 732.0 473.0
551 272.0 385.0
552 983.0 415.0
553 804.0 287.0
554 962.0 591.0
555 799.0 60.0
556 403.0 864.0
557 396.0 181.0
558 406.0 686.0
559 124.0 107.0
560 553.0 859.0
561 65.0 602.0
562 299.0 900.0
563 890.0 522.0
564 57.0 318.0
565 896.0 420.0
566 450.0 117.0
567 259.0 3.0
568 226.0 845.0
569 486.0 220.0
570 221.0 61.0
571 234.0 504.0
572 652.0 559.0
573 104.0 895.0
574 615.0 427.0
575 640.0 277.0
576 46.0 976.0
577 632.0 340.0
578 791.0 15.0
579 261.0 261.0
580 906.0 312.0
581 929.0 744.0
582 742.0 191.0
583 886.0 292.0
584 556.0 527.0
585 480.0 625.0
586 56.0 865.0
587 432.0 182.0
588 872.0 39.0
589 922.0 178.0
590 696.0 307.0
591 245.0 979.0
592 47.0 803.0
593 796.0 506.0
594 67.0 949.0
595 208.0 681.0
596 322.0 794.0
597 236.0 540.0
598 25.0 90.0
599 854.0 15.0
600 814.0 29.0
601 568.0 541.0
602 394.0 951.0
603 900.0 984.0
604 379.0 748.0
605 609.0 737.0
606 598.0 161.0
607 94.0 183.0
608 408.0 134.0
609 978.0 586.0
610 278.0 666.0
611 693.0 346.0
612 334.0 501.0
613 602.0 146.0
614 562.0 597.0
615 508.0 608.0
616 968.0 957.0
617 910.0 53.0
618 865.0 36.0
619 470.0 944.0
620 800.0 273.0
621 686.0 641.0
622 860.0 370.0
623 570.0 178.0
624 568.0 360.0
625 824.0 162.0
626 377.0 690.0
627 897.0 954.0
628 389.0 354.0
629 136.0 922.0
630 137.0 622.0
631 539.0 796.0
632 161.0 698.0
633 418.0 865.0
634 810.0 742.0
635 163.0 737.0
636 46.0 977.0
637 812.0 608.0
638 188.0 106.0
639 680.0 149.0
640 191.0 306.0
641 292.0 633.0
642 480.0 545.0
643 950.0 695.0
644 113.0 37.0
645 651.0 288.0
646 252.0 457.0
647 628.0 210.0
648 138.0 175.0
649 502.0 967.0
650 202.0 904.0
651 955.0 633.0
652 863.0 288.0
653 858.0 343.0
654 649.0 560.0
655 267.0 648.0
656 776.0 427.0
657 446.0 778.0
658 979.0 513.0
659 803.0 260.0
660 383.0 425.0
661 31.0 558.0
662 149.0 907.0
663 692.0 100.0
664 233.0 940.0
665 53.0 690.0
666 136.0 742.0
667 770.0 593.0
668 520.0 159.0
669 38.0 645.0
670 339.0 65.0
671 482.0 480.0
672 903.0 713.0
673 405.0 345.0
674 588.0 529.0
675 351.0 511.0
676 785.0 410.0
677 748.0 9.0
678 31.0 387.0
679 708.0 607.0
680 392.0 420.0
681 374.0 151.0
682 761.0 166.0
683 351.0 73.0
684 819.0 817.0
685 189.0 371.0
686 35.0 30.0
687 353.0 525.0
688 348.0 795.0
689 787.0 31.0
690 339.0 635.0
691 763.0 864.0
692 880.0 679.0
693 422.0 801.0
694 475.0 883.0
695 113.0 770.0
696 345.0 260.0
697 606.0 918.0
698 650.0 146.0
699 831.0 198.0
700 739.0 651.0
701 875.0 165.0
702 123.0 634.0
703 918.0 825.0
704 576.0 412.0
705 887.0 757.0
706 829.0 550.0
707 220.0 422.0
708 355.0 23.0
709 497.0 52.0
710 894.0 309.0
711 337.0 371.0
712 47.0 417.0
713 480.0 127.0
714 608.0 870.0
715 821.0 172.0
716 551.0 963.0
717 377.0 927.0
718 420.0 496.0
719 15.0 317.0
720 896.0 762.0
721 871.0 378.0
722 425.0 398.0
723 818.0 544.0
724 865.0 631.0
725 479.0 381.0
726 137.0 615.0
727 675.0 444.0
728 434.0 337.0
729 750.0 908.0
730 479.0 377.0
731 801.0 833.0
732 970.0 1.0
733 19.0 901.0
734 696.0 371.0
735 343.0 639.0
736 915.0 734.0
737 824.0 626.0
738 805.0 252.0
739 695.0 449.0
740 463.0 49.0
741 311.0 246.0
742 473.0 551.0
743 472.0 974.0
744 147.0 545.0
745 852.0 905.0
746 371.0 151.0
747 786.0 779.0
748 79.0 437.0
749 485.0 148.0
750 647.0 88.0
751 365.0 879.0
752 393.0 497.0
753 304.0 136.0
754 546.0 133.0
755 142.0 502.0
756 903.0 179.0
757 458.0 886.0
758 725.0 568.0
759 767.0 680.0
760 240.0 494.0
761 694.0 783.0
762 333.0 123.0
763 365.0 474.0
764 430.0 654.0
765 858.0 498.0
766 452.0 185.0
767 228.0 852.0
768 373.0 747.0
769 807.0 297.0
770 556.0 549.0
771 896.0 595.0
772 509.0 329.0
773 46.0 668.0
774 505.0 630.0
775 644.0 181.0
776 693.0 375.0
777 39.0 739.0
778 303.0 98.0
779 796.0 781.0
780 694.0 617.0
781 174.0 17.0
782 320.0 488.0
783 757.0 930.0
784 216.0 490.0
785 498.0 72.0
786 526.0 31.0
787 954.0 11.0
788 35.0 588.0
789 853.0 42.0
790 596.0 362.0
791 381.0 85.0
792 705.0 490.0
793 972.0 761.0
794 405.0 842.0
795 208.0 117.0
796 427.0 691.0
797 377.0 236.0
798 834.0 246.0
799 786.0 353.0
800 44.0 949.0
801 855.0 557.0
802 22.0 711.0
803 825.0 76.0
804 709.0 203.0
805 902.0 664.0
806 465.0 990.0
807 681.0 806.0
808 356.0 325.0
809 680.0 721.0
810 487.0 884.0
811 627.0 642.0
812 300.0 144.0
813 932.0 582.0
814 785.0 685.0
815 65.0 404.0
816 91.0 74.0
817 850.0 518.0
818 37.0 213.0
819 191.0 526.0
820 302.0 499.0
821 545.0 1.0
822 867.0 761.0
823 864.0 289.0
824 416.0 366.0
825 246.0 911.0
826 77.0 540.0
827 191.0 628.0
828 55.0 123.0
829 160.0 347.0
830 59.0 644.0
831 528.0 533.0
832 168.0 978.0
833 545.0 236.0
834 50.0 487.0
835 988.0 141.0
836 782.0 160.0
837 934.0 218.0
838 120.0 592.0
839 366.0 174.0
840 506.0 937.0
841 368.0 2.0
842 908.0 455.0
843 890.0 170.0
844 965.0 387.0
845 901.0 102.0
846 666.0 630.0
847 392.0 872.0
848 114.0 824.0
849 83.0 333.0
850 375.0 12.0
851 132.0 70.0
852 258.0 769.0
853 907.0 155.0
854 542.0 990.0
855 137.0 902.0
856 217.0 802.0
857 916.0 523.0
858 528.0 371.0
859 590.0 981.0
860 621.0 570.0
861 872.0 589.0
862 738.0 56.0
863 628.0 394.0
864 826.0 804.0
865 358.0 591.0
866 846.0 644.0
867 676.0 251.0
868 593.0 9.0
869 884.0 113.0
870 658.0 355.0
871 253.0 25.0
872 232.0 819.0
873 600.0 655.0
874 786.0 10.0
875 247.0 665.0
876 866.0 842.0
877 907.0 440.0
878 578.0 538.0
879 453.0 911.0
880 638.0 232.0
881 686.0 61.0
882 691.0 777.0
883 784.0 518.0
884 168.0 492.0
885 800.0 795.0
886 355.0 62.0
887 341.0 451.0
888 818.0 204.0
889 405.0 459.0
890 391.0 952.0
891 920.0 77.0
892 465.0 341.0
893 288.0 283.0
894 714.0 912.0
895 139.0 904.0
896 838.0 89.0
897 536.0 631.0
898 61.0 640.0
899 554.0 598.0
900 654.0 238.0
901 619.0 342.0
902 882.0 68.0
903 44.0 17.0
904 893.0 526.0
905 240.0 100.0
906 9.0 970.0
907 871.0 957.0
908 467.0 618.0
909 601.0 410.0
910 513.0 750.0
911 883.0 603.0
912 148.0 713.0
913 797.0 961.0
914 724.0 406.0
915 752.0 649.0
916 425.0 656.0
917 857.0 618.0
918 252.0 973.0
919 844.0 216.0
920 84.0 895.0
921 823.0 764.0
922 227.0 345.0
923 822.0 2.0
924 641.0 79.0
925 956.0 79.0
926 107.0 155.0
927 378.0 745.0
928 135.0 373.0
929 208.0 723.0
930 873.0 973.0
931 204.0 595.0
932 368.0 935.0
933 812.0 890.0
934 619.0 535.0
935 45.0 516.0
936 777.0 948.0
937 441.0 840.0
938 356.0 371.0
939 470.0 721.0
940 15.0 646.0
941 386.0 290.0
942 267.0 424.0
943 968.0 608.0
944 577.0 314.0
945 9.0 183.0
946 684.0 183.0
947 274.0 938.0
948 29.0 505.0
949 493.0 757.0
950 409.0 284.0
951 569.0 186.0
952 523.0 127.0
953 957.0 44.0
954 410.0 196.0
955 970.0 723.0
956 394.0 82.0
957 388.0 310.0
958 342.0 888.0
959 262.0 773.0
960 909.0 868.0
961 19.0 433.0
962 114.0 332.0
963 532.0 120.0
964 156.0 292.0
965 293.0 190.0
966 90.0 268.0
967 874.0 448.0
968 101.0 316.0
969 459.0 944.0
970 146.0 241.0
971 112.0 312.0
972 128.0 514.0
973 82.0 629.0
974 477.0 821.0
975 927.0 184.0
976 623.0 701.0
977 728.0 765.0
978 35.0 893.0
979 47.0 657.0
980 636.0 548.0
981 684.0 504.0
982 336.0 487.0
983 151.0 542.0
984 872.0 194.0
985 646.0 144.0
986 480.0 331.0
987 568.0 382.0
988 873.0 390.0
989 896.0 288.0
990 27.0 974.0
EOF





